c File: instances/38_0.30_2.col
c
c Description: Random graph of size 38 vertices and P(0.3) of edges between any two vertices.
p col 38 703
e 1 3
e 1 4
e 1 5
e 1 6
e 1 8
e 1 9
e 1 13
e 1 22
e 1 25
e 1 26
e 1 30
e 1 37
e 1 38
e 2 10
e 2 13
e 2 15
e 2 16
e 2 26
e 2 27
e 2 29
e 2 34
e 2 35
e 2 37
e 3 5
e 3 8
e 3 15
e 3 18
e 3 22
e 3 23
e 3 24
e 3 27
e 3 29
e 3 30
e 3 32
e 3 33
e 3 34
e 3 36
e 4 6
e 4 13
e 4 21
e 4 22
e 4 23
e 4 26
e 4 32
e 4 33
e 5 7
e 5 8
e 5 10
e 5 11
e 5 12
e 5 18
e 5 21
e 5 31
e 5 33
e 6 9
e 6 11
e 6 12
e 6 17
e 6 20
e 6 21
e 6 23
e 6 24
e 6 29
e 6 36
e 6 37
e 7 9
e 7 18
e 7 21
e 7 23
e 7 24
e 7 27
e 7 28
e 7 32
e 7 33
e 7 34
e 7 38
e 8 11
e 8 15
e 8 19
e 8 20
e 8 22
e 8 24
e 8 26
e 8 28
e 8 35
e 8 38
e 9 11
e 9 18
e 9 20
e 9 27
e 9 36
e 10 11
e 10 17
e 10 25
e 10 27
e 10 30
e 10 33
e 11 14
e 11 18
e 11 24
e 11 25
e 11 29
e 11 33
e 11 34
e 12 13
e 12 14
e 12 15
e 12 18
e 12 22
e 12 25
e 12 26
e 12 37
e 12 38
e 13 16
e 13 18
e 13 19
e 13 26
e 13 29
e 13 31
e 13 32
e 13 34
e 13 36
e 13 38
e 14 22
e 14 26
e 14 31
e 14 34
e 15 18
e 15 21
e 15 23
e 15 25
e 15 26
e 15 28
e 15 32
e 16 18
e 16 19
e 16 20
e 16 26
e 16 28
e 16 32
e 16 33
e 16 37
e 16 38
e 17 19
e 17 22
e 17 25
e 17 28
e 17 33
e 17 34
e 18 25
e 18 29
e 18 35
e 18 37
e 19 20
e 19 23
e 19 26
e 19 29
e 19 33
e 19 34
e 19 36
e 20 23
e 20 27
e 20 31
e 20 32
e 20 36
e 21 26
e 21 33
e 21 37
e 23 24
e 23 27
e 23 35
e 23 38
e 24 28
e 24 34
e 24 37
e 25 27
e 25 28
e 25 29
e 25 34
e 25 38
e 26 30
e 26 31
e 26 35
e 26 37
e 26 38
e 27 29
e 27 30
e 27 31
e 27 35
e 28 30
e 28 31
e 28 34
e 28 37
e 28 38
e 29 38
e 30 32
e 31 33
e 31 34
e 32 36
e 33 35
e 33 37
e 33 38
e 34 35
e 34 38
e 35 36